letting n =  10
letting blocks =  [[1, 10], [2, 3], [2, 6], [2, 8], [3, 7], [3, 10], [4, 1], [4, 10], [5, 1], [5, 2], [5, 4], [5, 9], [6, 5], [6, 8], [7, 2], [7, 7], [7, 8], [8, 1], [8, 8], [8, 9], [8, 10], [9, 5], [10, 5], [10, 6], [10, 7], [10, 9]]
